130 6820
1 41 71 130 50 2 118 20 93 44 42 120 72 91 92 73 99 75 74 52 9 57 82 56 65 103 81 87 12 95 29 15 19 27 100 24 116 79 38 106 58 49 53 51 60 55 122 6 102 10 14 67 96 13 23 40 47 22 37 33 21 18 8 108 114 3 117 39 16 128 105 112 62 28 115 83 30 59 90 125 85 66 78 121 126 46 80 4 35 54 31 17 34 127 107 104 43 68 48 25 113 32 36 84 119 111 123 101 77 94 89 110 98 63 70 97 7 26 88 86 69 64 124 129 61 109 76 11 5 45 
